<?xml version = "1.0" standalone="yes"?>
<!-- This file has been generated by DOcplex version 2.23.222  -->
<CPLEXSolution version="1.0">
 <header
   problemName="CVRP"
   objectiveValue="11809.6"
  />
 <variables>
  <variable name="x_0_2" index="1" value="1.00000"/>
  <variable name="x_0_3" index="2" value="1.00000"/>
  <variable name="x_0_7" index="6" value="1.00000"/>
  <variable name="x_0_8" index="7" value="1.00000"/>
  <variable name="x_0_12" index="11" value="1.00000"/>
  <variable name="x_0_15" index="14" value="1.00000"/>
  <variable name="x_0_16" index="15" value="1.00000"/>
  <variable name="x_0_17" index="16" value="1.00000"/>
  <variable name="x_0_18" index="17" value="1.00000"/>
  <variable name="x_1_6" index="24" value="1.00000"/>
  <variable name="x_2_13" index="50" value="1.00000"/>
  <variable name="x_3_1" index="58" value="1.00000"/>
  <variable name="x_4_0" index="76" value="1.00000"/>
  <variable name="x_5_0" index="95" value="1.00000"/>
  <variable name="x_6_10" index="123" value="1.00000"/>
  <variable name="x_7_11" index="143" value="1.00000"/>
  <variable name="x_8_19" index="170" value="1.00000"/>
  <variable name="x_9_0" index="171" value="1.00000"/>
  <variable name="x_10_0" index="190" value="1.00000"/>
  <variable name="x_11_0" index="209" value="1.00000"/>
  <variable name="x_12_14" index="241" value="1.00000"/>
  <variable name="x_13_0" index="247" value="1.00000"/>
  <variable name="x_14_0" index="266" value="1.00000"/>
  <variable name="x_15_4" index="289" value="1.00000"/>
  <variable name="x_16_9" index="313" value="1.00000"/>
  <variable name="x_17_0" index="323" value="1.00000"/>
  <variable name="x_18_5" index="347" value="1.00000"/>
  <variable name="x_19_0" index="361" value="1.00000"/>
  <variable name="u_1" index="380" value="29.00000"/>
  <variable name="u_2" index="381" value="15.00000"/>
  <variable name="u_3" index="382" value="17.00000"/>
  <variable name="u_4" index="383" value="39.00000"/>
  <variable name="u_5" index="384" value="41.00000"/>
  <variable name="u_6" index="385" value="36.00000"/>
  <variable name="u_7" index="386" value="26.00000"/>
  <variable name="u_8" index="387" value="31.00000"/>
  <variable name="u_9" index="388" value="41.00000"/>
  <variable name="u_10" index="389" value="41.00000"/>
  <variable name="u_11" index="390" value="37.00000"/>
  <variable name="u_12" index="391" value="21.00000"/>
  <variable name="u_13" index="392" value="39.00000"/>
  <variable name="u_14" index="393" value="41.00000"/>
  <variable name="u_15" index="394" value="20.00000"/>
  <variable name="u_16" index="395" value="29.00000"/>
  <variable name="u_17" index="396" value="11.00000"/>
  <variable name="u_18" index="397" value="22.00000"/>
  <variable name="u_19" index="398" value="41.00000"/>
 </variables>
</CPLEXSolution>
